
List of user-set options:

                                    Name   Value                used
                           compl_inf_tol = 1                     yes
                         constr_viol_tol = 1                     yes
                            dual_inf_tol = 1000                  yes
                           linear_solver = ma97                  yes
                              ma86_small = 1e-30                  no
                                  ma86_u = 0.0001                 no
                              ma97_order = best                  yes
                              ma97_small = 1e-30                 yes
                            ma97_switch1 = at_start              yes
                            ma97_switch2 = od_hd_reuse           yes
                                  ma97_u = 1e-06                 yes
                               ma97_umax = 0.5                   yes
                                max_iter = 1000                  yes
                    max_refinement_steps = 20                    yes
                    min_refinement_steps = 5                     yes
                                 mu_init = 1e-06                 yes
           mu_superlinear_decrease_power = 1.25                  yes
                   nlp_scaling_min_value = 1e-08                 yes
                        option_file_name = Preset_Case_671_pf.opt  yes
                             output_file = ./tmp/Preset_Case_671_pf.output  yes
                      print_user_options = yes                   yes
        required_infeasibility_reduction = 1                      no
                                     tol = 1e-08                 yes
                   warm_start_bound_frac = 1e-20                 yes
                   warm_start_bound_push = 1e-20                 yes
                   warm_start_init_point = yes                   yes
              warm_start_mult_bound_push = 1e-20                 yes
                warm_start_mult_init_max = 1e+40                 yes
             warm_start_slack_bound_frac = 1e-20                 yes
             warm_start_slack_bound_push = 1e-20                 yes

******************************************************************************
This program contains Ipopt, a library for large-scale nonlinear optimization.
 Ipopt is released as open source code under the Eclipse Public License (EPL).
         For more information visit http://projects.coin-or.org/Ipopt
******************************************************************************

This is Ipopt version 3.12.10, running with linear solver ma97.

Number of nonzeros in equality constraint Jacobian...:   123442
Number of nonzeros in inequality constraint Jacobian.:      213
Number of nonzeros in Lagrangian Hessian.............:    49069

Total number of variables............................:    31591
                     variables with only lower bounds:    12912
                variables with lower and upper bounds:    15130
                     variables with only upper bounds:        0
Total number of equality constraints.................:    31483
Total number of inequality constraints...............:       25
        inequality constraints with only lower bounds:        4
   inequality constraints with lower and upper bounds:        0
        inequality constraints with only upper bounds:       21

iter    objective    inf_pr   inf_du lg(mu)  ||d||  lg(rg) alpha_du alpha_pr  ls
   0 -5.0379350e+00 4.05e-03 1.02e+00  -6.0 0.00e+00    -  0.00e+00 0.00e+00   0
   1 -5.0373753e+00 3.62e-02 2.10e+00  -6.0 4.66e+05    -  1.11e-04 9.56e-05h  5
   2 -5.0393902e+00 3.62e-02 3.83e+01  -6.0 1.21e+04    -  1.70e-01 1.95e-03h  1
   3 -5.2456381e+00 1.91e+00 9.03e+02  -6.0 1.21e+04    -  1.21e-01 2.00e-01f  1
   4 -5.4166542e+00 3.11e+00 1.46e+03  -6.0 7.26e+03    -  1.50e-01 2.73e-01h  1
   5 -5.4655062e+00 1.85e+01 1.35e+03  -6.0 5.67e+03    -  1.29e-02 1.54e-01h  1
   6 -5.4764226e+00 2.01e+01 1.30e+03  -6.0 7.47e+03    -  2.90e-02 4.40e-02h  1
   7 -5.4754122e+00 1.95e+01 1.26e+03  -6.0 4.04e+00  -4.0 1.54e-01 3.09e-02h  1
   8 -5.4772925e+00 2.22e+01 1.26e+03  -6.0 9.71e+04    -  5.86e-03 3.55e-03h  1
   9 -5.4775573e+00 4.15e+01 1.24e+03  -6.0 8.09e+04    -  7.97e-04 1.15e-02f  1
iter    objective    inf_pr   inf_du lg(mu)  ||d||  lg(rg) alpha_du alpha_pr  ls
  10 -5.4775543e+00 4.15e+01 1.24e+03  -6.0 3.36e+01  -4.5 2.19e-01 1.13e-04h  1
  11 -5.5743584e+00 5.89e+01 1.22e+03  -6.0 4.07e+03    -  9.55e-03 3.82e-01h  1
  12 -5.5590529e+00 2.47e+01 5.02e+02  -6.0 2.56e+01  -5.0 3.98e-01 5.82e-01h  1
  13 -5.5725274e+00 1.65e+01 4.10e+02  -6.0 9.83e+01  -5.4 1.30e-01 3.32e-01h  1
  14 -5.6031735e+00 6.96e+00 2.09e+02  -6.0 6.37e+01  -5.9 2.59e-01 5.78e-01h  1
  15 -5.6076227e+00 5.91e+00 3.30e+03  -6.0 1.15e+02  -6.4 2.85e-01 1.50e-01h  1
  16 -5.6191678e+00 5.13e+00 2.26e+03  -6.0 4.38e+02  -6.9 4.39e-01 1.33e-01h  1
  17 -5.6467522e+00 2.61e+00 1.15e+03  -6.0 2.26e+02  -7.3 1.27e-01 4.91e-01h  1
  18 -5.6485055e+00 2.61e+00 4.81e+03  -6.0 5.22e+04    -  2.37e-02 6.59e-03h  1
  19 -5.6680718e+00 2.52e+00 3.95e+03  -6.0 3.63e+03    -  2.83e-02 7.36e-02h  1
iter    objective    inf_pr   inf_du lg(mu)  ||d||  lg(rg) alpha_du alpha_pr  ls
  20 -5.6988884e+00 1.74e+00 1.39e+03  -6.0 1.28e+03  -7.8 5.04e-02 3.11e-01h  1
  21 -5.7359046e+00 1.10e+00 3.74e+03  -6.0 2.00e+03  -8.3 2.88e-01 3.90e-01h  1
  22 -5.7696263e+00 5.05e+00 1.64e+04  -6.0 2.27e+03  -8.8 9.03e-02 3.32e-01h  1
  23 -5.7844235e+00 3.68e+00 5.95e+03  -6.0 1.44e+03  -8.3 5.04e-01 3.37e-01h  1
  24 -5.7881898e+00 1.02e+01 9.34e+03  -6.0 9.42e+03    -  8.21e-02 5.74e-02h  1
  25 -5.7935251e+00 1.74e+01 3.14e+04  -6.0 6.50e+03    -  2.33e-01 9.31e-02h  1
  26 -5.8106519e+00 3.72e+01 1.13e+05  -6.0 3.01e+03    -  9.03e-01 3.68e-01h  1
  27 -5.8330204e+00 2.33e+01 2.80e+05  -6.0 1.11e+03  -8.8 5.72e-04 1.00e+00h  1
  28 -5.8367863e+00 2.08e+01 1.69e+05  -6.0 3.16e+03    -  2.19e-01 1.15e-01h  1
  29r-5.8367863e+00 2.08e+01 1.00e+03   1.2 0.00e+00    -  0.00e+00 7.22e-08R  2
iter    objective    inf_pr   inf_du lg(mu)  ||d||  lg(rg) alpha_du alpha_pr  ls
  30r-5.8535706e+00 2.08e+01 1.00e+03   1.2 7.98e+04    -  1.85e-08 1.20e-07f  1
  31 -5.8533323e+00 2.05e+01 4.70e+03  -6.0 1.57e+01    -  2.55e-06 1.20e-02h  1
  32 -5.8521609e+00 1.93e+01 4.42e+03  -6.0 1.63e+01    -  2.49e-02 6.00e-02h  1
  33 -5.8459492e+00 1.28e+01 2.94e+03  -6.0 1.72e+01    -  1.08e-01 3.36e-01h  1
  34 -5.8408903e+00 7.34e+00 1.68e+03  -6.0 2.24e+01    -  3.29e-01 4.28e-01h  1
  35 -5.8359075e+00 1.62e+00 3.65e+02  -6.0 3.93e+01    -  8.41e-02 7.83e-01h  1
  36 -5.8355531e+00 4.27e-01 9.19e+01  -6.0 4.07e+01    -  8.46e-01 7.48e-01h  1
  37 -5.8365410e+00 3.76e-01 8.09e+01  -6.0 2.20e+00    -  6.87e-01 1.19e-01h  1
  38 -5.8458322e+00 1.50e-01 3.23e+01  -6.0 4.63e+00    -  6.37e-01 6.01e-01h  1
  39 -5.8480762e+00 2.72e-03 2.01e+01  -6.0 1.01e+01    -  8.86e-01 1.00e+00h  1
iter    objective    inf_pr   inf_du lg(mu)  ||d||  lg(rg) alpha_du alpha_pr  ls
  40 -5.8486945e+00 3.50e-03 5.37e+01  -6.0 7.62e+01    -  9.06e-01 1.04e-01h  1
  41 -5.8585904e+00 1.30e+00 5.32e+01  -6.0 2.21e+04    -  1.01e-02 9.54e-03h  1
  42 -5.8639877e+00 3.64e-01 7.54e+04  -6.0 1.47e+02    -  5.07e-01 1.00e+00h  1
  43 -5.8692803e+00 6.43e-01 1.90e+04  -6.0 1.53e+02  -6.6 4.08e-01 6.76e-01h  1
  44 -5.8788329e+00 6.20e-01 1.66e+04  -6.0 2.93e+02    -  2.49e-01 4.28e-01h  1
  45 -5.8818386e+00 6.21e-01 2.77e+04  -6.0 6.06e+02    -  2.60e-01 6.16e-02h  1
  46 -5.8945948e+00 1.16e+00 1.23e+05  -6.0 6.66e+02    -  4.69e-01 2.35e-01h  1
  47 -5.8970460e+00 1.14e+00 2.19e+06  -6.0 1.41e+03    -  1.05e-02 2.96e-02h  1
  48 -5.8970497e+00 1.14e+00 1.84e+06  -6.0 5.13e+02    -  2.38e-01 9.58e-05h  1
  49 -5.8973725e+00 1.14e+00 2.18e+08  -6.0 9.04e+04    -  2.37e-05 2.69e-03h  1
iter    objective    inf_pr   inf_du lg(mu)  ||d||  lg(rg) alpha_du alpha_pr  ls
  50 -5.9007796e+00 9.98e-01 1.67e+08  -6.0 4.09e+02    -  3.33e-03 1.51e-01h  1
  51 -5.9034967e+00 8.22e-01 1.35e+08  -6.0 4.20e+02    -  4.18e-02 1.97e-01h  1
  52 -5.8989138e+00 5.39e-02 9.06e+05  -6.0 4.24e+02    -  2.42e-01 1.00e+00H  1
  53 -5.9023138e+00 4.77e-01 7.66e+05  -6.0 1.04e+03    -  8.37e-01 1.55e-01h  1
  54 -5.9041423e+00 7.29e+01 6.68e+05  -6.0 1.39e+04    -  6.60e-02 1.27e-01h  1
  55 -5.9041879e+00 7.21e+01 6.61e+05  -6.0 2.00e+03    -  4.42e-01 1.05e-02h  1
  56 -5.9064667e+00 6.01e+01 4.70e+05  -6.0 2.33e+03    -  7.17e-02 2.90e-01h  1
  57 -5.9065501e+00 5.79e+01 4.53e+05  -6.0 1.33e+03    -  1.65e-02 3.61e-02h  1
  58 -5.9068510e+00 5.00e+01 3.89e+05  -6.0 1.03e+03    -  5.29e-01 1.40e-01h  1
  59 -5.9075374e+00 3.18e+01 2.20e+05  -6.0 1.14e+03    -  3.00e-02 4.36e-01h  1
iter    objective    inf_pr   inf_du lg(mu)  ||d||  lg(rg) alpha_du alpha_pr  ls
  60 -5.9079634e+00 4.18e+01 1.48e+05  -6.0 3.17e+03    -  7.14e-02 3.26e-01h  1
  61 -5.9079242e+00 4.16e+01 1.46e+05  -6.0 9.68e+03    -  1.19e-01 1.44e-02h  1
  62 -5.9079057e+00 3.38e+01 1.15e+05  -6.0 1.18e+03    -  6.09e-01 2.13e-01h  1
  63 -5.9073461e+00 1.33e+01 2.78e+03  -6.0 8.18e+02    -  5.82e-02 9.77e-01h  1
  64 -5.9072605e+00 2.30e-02 4.66e+02  -6.0 5.88e+00  -4.4 4.41e-03 1.00e+00h  1
  65 -5.9072536e+00 4.55e-04 2.15e+01  -6.0 1.82e+00  -4.8 7.21e-01 1.00e+00h  1
  66 -5.9074038e+00 4.02e-04 4.87e-01  -6.0 2.07e+00  -5.3 9.75e-01 1.00e+00h  1
  67 -5.9075095e+00 8.89e-04 1.16e+00  -6.0 2.98e+00  -5.8 1.00e+00 1.00e+00h  1
  68 -5.9076496e+00 8.58e-03 7.60e+00  -6.0 7.43e+00  -6.3 4.34e-01 9.29e-01h  1
  69 -5.9077085e+00 1.33e+00 7.41e+00  -6.0 2.61e+04    -  2.39e-03 1.03e-02f  1
iter    objective    inf_pr   inf_du lg(mu)  ||d||  lg(rg) alpha_du alpha_pr  ls
  70 -5.9074919e+00 1.08e+00 4.89e+00  -6.0 2.52e+02  -6.7 5.72e-01 9.07e-01h  1
  71 -5.9075359e+00 1.45e-01 7.94e+00  -6.0 1.35e+01  -5.4 5.98e-01 8.66e-01f  1
  72 -5.9080870e+00 6.97e-03 5.31e+00  -6.0 4.84e+00  -5.9 9.72e-01 1.00e+00h  1
  73 -5.9081345e+00 6.38e-01 2.79e+01  -6.0 1.71e+03    -  6.92e-01 8.20e-02h  1
  74 -5.9079026e+00 2.49e-01 3.53e+03  -6.0 5.27e+02    -  1.00e+00 1.00e+00H  1
  75 -5.9079089e+00 8.13e-05 9.33e-01  -6.0 1.46e+00  -6.4 8.31e-01 1.00e+00h  1
  76 -5.9079023e+00 3.01e-04 1.40e-02  -6.0 3.98e+00  -6.8 1.00e+00 1.00e+00h  1
  77 -5.9079041e+00 2.93e-03 9.08e-03  -6.0 1.20e+01  -7.3 1.00e+00 1.00e+00h  1
  78 -5.9079200e+00 3.42e-02 4.42e-02  -6.0 3.67e+01  -7.8 1.00e+00 1.00e+00h  1
  79 -5.9079252e+00 7.40e-03 3.58e-02  -6.0 1.43e+01  -7.4 1.00e+00 1.00e+00h  1
iter    objective    inf_pr   inf_du lg(mu)  ||d||  lg(rg) alpha_du alpha_pr  ls
  80 -5.9079086e+00 1.37e-03 1.60e+00  -6.0 7.48e+00  -6.9 2.57e-01 1.00e+00h  1
  81 -5.9079275e+00 7.53e-05 1.73e-03  -6.0 2.45e-01  -4.7 1.00e+00 1.00e+00h  1
  82 -5.9079463e+00 1.21e-03 9.62e-01  -6.0 1.22e+00  -5.2 4.57e-01 1.00e+00h  1
  83 -5.9079965e+00 3.71e-04 7.96e-03  -6.0 6.62e-01  -4.8 1.00e+00 1.00e+00h  1
  84 -5.9082828e+00 1.46e-02 2.98e+00  -6.0 7.08e+00  -5.2 3.67e-01 6.10e-01h  1
  85 -5.9088141e+00 5.67e+00 3.20e+02  -6.0 5.37e+03    -  9.53e-02 1.04e-01f  1
  86 -5.9090825e+00 5.33e+00 3.67e+03  -6.0 1.59e+01  -5.7 2.36e-05 6.06e-02h  1
  87 -5.9096573e+00 5.02e+00 2.35e+04  -6.0 1.53e+03    -  2.85e-01 5.76e-02h  1
  88 -5.9138271e+00 6.71e+00 2.18e+04  -6.0 1.41e+03    -  1.53e-01 4.82e-01h  1
  89 -5.9170780e+00 1.38e+00 1.26e+05  -6.0 1.22e+01  -6.2 1.92e-01 7.95e-01h  1
iter    objective    inf_pr   inf_du lg(mu)  ||d||  lg(rg) alpha_du alpha_pr  ls
  90 -5.9182689e+00 1.53e+00 4.56e+04  -6.0 1.65e+03    -  2.25e-01 8.03e-02h  1
  91 -5.9192255e+00 1.49e+00 5.11e+05  -6.0 9.63e+02    -  5.02e-01 6.70e-02h  1
  92r-5.9192255e+00 1.49e+00 1.00e+03  -0.1 0.00e+00    -  0.00e+00 1.19e-07R  2
  93r-5.9283206e+00 1.49e+00 1.00e+03  -0.1 1.05e+04    -  6.74e-06 2.02e-06f  1
  94 -5.9271635e+00 1.30e+00 5.09e+03  -6.0 1.68e+00    -  1.30e-01 1.27e-01h  1
  95 -5.9238255e+00 7.60e-01 4.79e+05  -6.0 1.39e+00    -  1.27e-01 4.14e-01h  1
  96 -5.9212410e+00 3.43e-01 2.16e+05  -6.0 7.47e-01    -  8.02e-01 5.48e-01h  1
  97 -5.9194744e+00 1.37e-04 1.45e+01  -6.0 5.58e-01    -  8.98e-01 1.00e+00h  1
  98 -5.9211704e+00 4.09e-03 6.55e+00  -6.0 3.67e+00    -  8.25e-01 1.00e+00h  1
  99 -5.9209966e+00 2.53e-03 1.40e-01  -6.0 1.20e+01    -  9.92e-01 1.00e+00h  1
iter    objective    inf_pr   inf_du lg(mu)  ||d||  lg(rg) alpha_du alpha_pr  ls
 100 -5.9218866e+00 1.89e-03 1.74e+02  -6.0 2.25e+02    -  8.07e-01 1.00e+00H  1
 101 -5.9222200e+00 1.53e-02 8.46e+00  -6.0 3.75e+02    -  9.50e-01 1.00e+00H  1
 102 -5.9222580e+00 5.82e-01 2.22e+01  -6.0 2.21e+03    -  5.34e-01 8.38e-02h  4
 103 -5.9222654e+00 6.00e-01 7.63e+01  -6.0 2.57e+03    -  9.01e-01 1.56e-02h  6
 104 -5.9222724e+00 6.18e-01 1.10e+02  -6.0 2.80e+03    -  4.36e-01 1.41e-02h  6
 105 -5.9224884e+00 2.69e+01 8.49e+01  -6.0 2.60e+03    -  1.00e+00 4.79e-01h  1
 106 -5.9225164e+00 1.74e+01 4.43e+01  -6.0 1.06e+03    -  1.00e+00 5.32e-01h  1
 107 -5.9224342e+00 4.62e+00 1.56e+00  -6.0 5.61e+02    -  1.00e+00 1.00e+00h  1
 108 -5.9224140e+00 1.01e-02 8.38e-03  -6.0 2.11e+01    -  1.00e+00 1.00e+00h  1
 109 -5.9224141e+00 1.02e-06 2.13e-06  -6.0 2.49e-01    -  1.00e+00 1.00e+00h  1
iter    objective    inf_pr   inf_du lg(mu)  ||d||  lg(rg) alpha_du alpha_pr  ls
 110 -5.9225421e+00 2.82e+00 6.11e+01  -7.5 6.04e+02    -  5.02e-01 7.13e-01h  1
 111 -5.9225408e+00 7.90e-01 9.65e+00  -7.5 1.63e+02    -  9.60e-01 8.23e-01h  1
 112 -5.9225355e+00 1.42e-02 2.17e-02  -7.5 2.93e+01    -  1.00e+00 1.00e+00h  1
 113 -5.9225353e+00 1.86e-05 8.73e-06  -7.5 1.11e+00    -  1.00e+00 1.00e+00h  1
 114 -5.9225353e+00 1.43e-09 1.06e-09  -7.5 9.52e-03    -  1.00e+00 1.00e+00h  1
 115 -5.9225369e+00 3.22e-03 9.19e-01  -9.0 1.74e+01    -  9.26e-01 8.26e-01h  1
 116 -5.9225372e+00 1.27e-04 1.63e-01  -9.0 2.84e+00    -  9.64e-01 1.00e+00h  1
 117 -5.9225372e+00 1.35e-09 4.57e-09  -9.0 9.38e-03    -  1.00e+00 1.00e+00h  1

Number of Iterations....: 117

                                   (scaled)                 (unscaled)
Objective...............:  -4.6269821715679980e+00   -5.9225371796070370e+00
Dual infeasibility......:   4.5707128013947517e-09    5.8505123857852823e-09
Constraint violation....:   1.1091957170321899e-09    1.3496901374310255e-09
Complementarity.........:   1.4078302100847970e-09    1.8020226689085402e-09
Overall NLP error.......:   4.5707128013947517e-09    5.8505123857852823e-09


Number of objective function evaluations             = 153
Number of objective gradient evaluations             = 118
Number of equality constraint evaluations            = 153
Number of inequality constraint evaluations          = 153
Number of equality constraint Jacobian evaluations   = 120
Number of inequality constraint Jacobian evaluations = 120
Number of Lagrangian Hessian evaluations             = 117
Total CPU secs in IPOPT (w/o function evaluations)   =    264.710
Total CPU secs in NLP function evaluations           =      4.761

EXIT: Optimal Solution Found.
